3 3 2
20 2 111 1 84 2 41 0 106 1 95 2 146 1 190 0 3 2 137 0 42 2 174 1 31 0 83 2 103 1 69 0 189 2 164 1 110 2 176 1 152 
20 0 16 2 189 1 198 0 16 2 159 1 68 0 4 1 57 2 10 1 112 0 170 1 1 0 11 2 188 0 96 2 119 1 122 0 182 2 121 0 48 
20 2 176 0 193 2 173 0 108 2 58 1 120 0 124 1 123 2 196 1 173 0 31 2 133 0 117 1 14 0 180 1 127 0 22 2 169 1 172 2 24 

-------------
